num_offers = 40;
num_halls = 10;
start=[14,56,65,33,4,14,1,23,30,53,47,33,11,30,43,42,61,12,26,76,50,1,9,29,14,15,8,12,21,82,28,21,22,21,31,65,47,30,18,8];
end=[63,63,94,56,85,22,33,82,42,98,96,49,29,37,100,95,97,46,55,83,83,97,55,40,20,59,47,41,89,97,45,89,91,65,87,70,100,47,57,53];
price=[1179,464,1362,2292,4684,175,1612,5560,464,3696,3482,360,1242,451,1867,1492,1787,959,2285,301,1047,5114,4381,781,79,1927,3415,2957,2282,1081,1118,2290,1249,2624,1165,595,2552,765,2875,1431];
requirement=[445,633,629,386,486,285,550,318,904,422,982,313,686,398,424,388,222,456,988,226,332,974,406,278,762,744,439,253,941,586,602,424,630,858,685,255,590,419,452,918];
capacity=[515,677,243,538,802,954,628,620,298,512];
